(set-info :smt-lib-version 2.6)
(set-logic UFLIA)
(set-info :source |
Generated by: Geoff Sutcliffe
Generated on: 2026-03-11
Generator: TPTPWorld
Application: Benchmarking automated theorem provers
Time limit: 120.0

These benchmarks are translations from the TPTP Library (Thousands of
Problems for Theorem Provers), see http://www.cs.miami.edu/~tptp/

The TPTP is maintained by Geoff Sutcliffe, and he contributed this
selection of benchmarks to SMT-LIB.  They were exported from the
v9.2.1 realease of TPTP.
|)
(set-info :category "industrial")
(set-info :status unknown)
; SZS status Success
(declare-sort $$unsorted 0)
(declare-sort |tptp.'Set'| 0)
(declare-sort |tptp.'Array[Int,Int]'| 0)
(declare-fun tptp.sup (|tptp.'Set'|) Int)
(declare-fun tptp.arr () |tptp.'Array[Int,Int]'|)
(declare-fun tptp.s1 () |tptp.'Set'|)
(declare-fun tptp.i1 () Int)
(declare-fun tptp.delete (|tptp.'Set'| Int) |tptp.'Set'|)
(declare-fun tptp.member (Int |tptp.'Set'|) Bool)
(declare-fun |tptp.'store:(Array[Int,Int]*Int*Int)>Array[Int,Int]'| (|tptp.'Array[Int,Int]'| Int Int) |tptp.'Array[Int,Int]'|)
(declare-fun |tptp.'const:(Int)>Array[Int,Int]'| (Int) |tptp.'Array[Int,Int]'|)
(declare-fun tptp.g (Int) Int)
(declare-fun tptp.s0 () |tptp.'Set'|)
(declare-fun |tptp.'select:(Array[Int,Int]*Int)>Int'| (|tptp.'Array[Int,Int]'| Int) Int)
(declare-fun tptp.insert (|tptp.'Set'| Int) |tptp.'Set'|)
(assert (forall ((A__questionmark_x Int) (A__questionmark_s |tptp.'Set'|)) (tptp.member A__questionmark_x (tptp.insert A__questionmark_s A__questionmark_x))))
(assert (forall ((A__questionmark_x Int) (A__questionmark_y Int) (A__questionmark_s |tptp.'Set'|)) (=> (not (= A__questionmark_x A__questionmark_y)) (= (tptp.member A__questionmark_x (tptp.insert A__questionmark_s A__questionmark_y)) (tptp.member A__questionmark_x A__questionmark_s)))))
(assert (forall ((A__questionmark_x Int) (A__questionmark_s |tptp.'Set'|)) (=> (not (tptp.member A__questionmark_x A__questionmark_s)) (= (tptp.delete A__questionmark_s A__questionmark_x) A__questionmark_s))))
(assert (forall ((A__questionmark_x Int) (A__questionmark_s |tptp.'Set'|)) (= (tptp.delete (tptp.insert A__questionmark_s A__questionmark_x) A__questionmark_x) (tptp.delete A__questionmark_s A__questionmark_x))))
(assert (forall ((A__questionmark_x Int) (A__questionmark_y Int) (A__questionmark_s |tptp.'Set'|)) (=> (not (= A__questionmark_x A__questionmark_y)) (= (tptp.delete (tptp.insert A__questionmark_s A__questionmark_y) A__questionmark_x) (tptp.insert (tptp.delete A__questionmark_s A__questionmark_x) A__questionmark_y)))))
(assert (forall ((A__questionmark_s |tptp.'Set'|)) (tptp.member (tptp.sup A__questionmark_s) A__questionmark_s)))
(assert (forall ((A__questionmark_s |tptp.'Set'|) (A__questionmark_x Int)) (=> (tptp.member A__questionmark_x A__questionmark_s) (<= A__questionmark_x (tptp.sup A__questionmark_s)))))
(assert (forall ((A__questionmark_s |tptp.'Set'|) (A__questionmark_x Int)) (=> (< (tptp.sup A__questionmark_s) A__questionmark_x) (= (tptp.sup (tptp.insert A__questionmark_s A__questionmark_x)) A__questionmark_x))))
(assert (forall ((A__questionmark_i Int)) (=> (> A__questionmark_i 0) (< (|tptp.'select:(Array[Int,Int]*Int)>Int'| tptp.arr A__questionmark_i) (tptp.sup tptp.s0)))))
(assert (forall ((A__questionmark_i Int)) (> (tptp.g A__questionmark_i) 0)))
(assert (= tptp.s1 (tptp.insert tptp.s0 (|tptp.'select:(Array[Int,Int]*Int)>Int'| tptp.arr (tptp.g tptp.i1)))))
(assert (not (= (tptp.sup tptp.s1) (tptp.sup tptp.s0))))
(assert (forall ((A |tptp.'Array[Int,Int]'|) (I Int) (E Int)) (= (|tptp.'select:(Array[Int,Int]*Int)>Int'| (|tptp.'store:(Array[Int,Int]*Int*Int)>Array[Int,Int]'| A I E) I) E)))
(assert (forall ((A |tptp.'Array[Int,Int]'|) (I Int) (J Int) (E Int)) (=> (not (= I J)) (= (|tptp.'select:(Array[Int,Int]*Int)>Int'| (|tptp.'store:(Array[Int,Int]*Int*Int)>Array[Int,Int]'| A I E) J) (|tptp.'select:(Array[Int,Int]*Int)>Int'| A J)))))
(assert (forall ((A |tptp.'Array[Int,Int]'|) (B |tptp.'Array[Int,Int]'|)) (=> (forall ((I Int)) (= (|tptp.'select:(Array[Int,Int]*Int)>Int'| A I) (|tptp.'select:(Array[Int,Int]*Int)>Int'| B I))) (= A B))))
(assert (forall ((I Int) (E Int)) (= (|tptp.'select:(Array[Int,Int]*Int)>Int'| (|tptp.'const:(Int)>Array[Int,Int]'| E) I) E)))
(check-sat)
(exit)
